************************************************************************
file with basedata            : a108_.bas
initial value random generator: 1987
************************************************************************
projects                      :  1
jobs (incl. supersource/sink ):  12
horizon bound                 :  80
RESOURCES
  - renewable                 :  4   R
  - nonrenewable              :  0   N
  - doubly constrained        :  0   D
  - partially renewable       :  0   P
************************************************************************
PROJECT INFORMATION:
prono.  #jobs rel.date duedate tardcost  CPM-Time
    1     10      0       11        3       11
************************************************************************
PRECEDENCE RELATIONS:
jobno.    #modes  #successors   successors
   1        1          3           2   3   4
   2        3          2           5   6
   3        3          2           7   9
   4        3          3           5   7   8
   5        3          3           9  10  11
   6        3          3           7   9  10
   7        3          1          11
   8        3          2          10  11
   9        3          1          12
  10        3          1          12
  11        3          1          12
  12        1          0        
************************************************************************
REQUESTS/DURATIONS:
jobno. mode duration  R 1  R 2  R 3  R 4
  1      1     0       0    0    0    0
  2      1     1       2    8    7    9
         2     3       2    6    5    6
         3     8       1    4    5    3
  3      1     2       6    7    9    4
         2     3       5    5    8    4
         3     7       3    4    6    3
  4      1     3      10    8    6    9
         2     6       9    5    4    6
         3     9       9    5    3    4
  5      1     3       8    4    9    6
         2     6       8    3    8    5
         3     7       6    2    8    5
  6      1     1       7    3    7    7
         2     4       5    3    7    6
         3     8       2    2    4    2
  7      1     3       6    6    6    4
         2     6       6    5    6    4
         3     9       4    5    4    3
  8      1     4      10    6   10    7
         2     5       6    5    9    7
         3     6       5    5    8    6
  9      1     1       6   10    5    9
         2     2       5    9    3    7
         3    10       2    9    2    6
 10      1     4       6    8    9    6
         2     9       5    7    7    4
         3    10       3    4    6    3
 11      1     1       8    9    9    8
         2     5       7    5    9    7
         3     6       5    1    8    5
 12      1     0       0    0    0    0
************************************************************************
RESOURCE AVAILABILITIES:
  R 1  R 2  R 3  R 4
   12   12   11    9
************************************************************************
